N = 3;

puzzle = array2d(1..N*N, 1..4,[
  3,0,1,2,
  7,7,8,5,
  9,3,5,1,
  8,6,4,1,
  3,8,8,6,
  7,6,9,8,
  1,3,6,0,
  8,1,1,0,
  6,8,7,4]);
        
%   3    7    9
%  2 1  5 8  1 5
%   0    7    3
%   
%   8    3    7
%  1 4  6 8  8 9 
%   6    8    6
%
%   1    8    6
%  0 6  0 1  4 7
%   3    1    8